100
    1   204   204
    2   946   946
    3   448   448
    4   819   819
    5   654   654
    6   420   420
    7   863   863
    8   800   800
    9   928   928
   10   406   406
   11   294   294
   12   941   941
   13   801   801
   14    70    70
   15   608   608
   16   560   560
   17   769   769
   18   795   795
   19    70    70
   20   583   583
   21     8     8
   22   595   595
   23   183   183
   24   695   695
   25   696   696
   26   463   463
   27   616   616
   28   742   742
   29   561   561
   30   171   171
   31   801   801
   32   352   352
   33   481   481
   34   858   858
   35   396   396
   36   182   182
   37   997   997
   38   887   887
   39   458   458
   40   606   606
   41   737   737
   42   470   470
   43   844   844
   44   955   955
   45   656   656
   46   552   552
   47   331   331
   48   764   764
   49   465   465
   50   493   493
   51   132   132
   52   363   363
   53    70    70
   54   588   588
   55   636   636
   56   220   220
   57   810   810
   58   982   982
   59   171   171
   60   261   261
   61   398   398
   62   793   793
   63   800   800
   64   796   796
   65   240   240
   66   872   872
   67   617   617
   68   347   347
   69   744   744
   70   768   768
   71   109   109
   72   785   785
   73   448   448
   74   741   741
   75   553   553
   76   187   187
   77   160   160
   78   339   339
   79    59    59
   80   408   408
   81   451   451
   82   320   320
   83   902   902
   84   442   442
   85   730   730
   86   518   518
   87   634   634
   88   127   127
   89   731   731
   90    23    23
   91    47    47
   92   375   375
   93   358   358
   94   513   513
   95   526   526
   96     1     1
   97   659   659
   98   593   593
   99   668   668
  100   686   686
17565
